Route 1 : 43 31 59 32 58 198 52 171 46 201 132 172 69 68 81 150 94 200 30
Route 2 : 163 66 159 63 157 17 184 5 155 176
Route 3 : 179 190 21 23 26 90 95 38 86 85 87 75 37 27 20 7 146 152 122
Route 4 : 56 77 82 192 199 137 131 28 101 140 6 188 84 48 51 4
Route 5 : 164 162 138 127 124 118 125 113 112 108 100 104 116 120 117 96 72 194 93
Route 6 : 111 115 76 161 197 99 11 102 151 14 16 15 22 91 165 36 175 193 145
Route 7 : 65 74 97 79 156 139 169 61 173 158 123 178 57 195 34 186 10 18 33 187 136 133 110 71
Route 8 : 166 3 119 9 41 126 8 105 80 147 89 13 103 180 92 160 189 130 1
Route 9 : 49 60 154 181 196 19 106 129 141 73 44 25 128 143 149 2 54 47 12 62 42
Route 10 : 109 67 134 114 153 177 168 39 40 45 53 170 182 70 185 50 174
Route 11 : 148 121 144 107 142 98
Route 12 : 29 167 64 35 83 78 55 24 191 88 183 135
Cost 129944
